Minimize
	value: tt

Subject to
tt + 1000 s_1_1 > 0.0
tt - t_1_1 - 1002.820129 s_1_1  + 2.820129 s_1_7  > -966.514922
tt + 1000 s_2_1 > 0.0
tt - t_2_1 - 1002.520791 s_2_1  + 2.520791 s_2_7  > -984.844867
tt + 1000 s_1_2 > 0.0
tt - t_1_2 - 1002.820129 s_1_2  + 2.820129 s_1_8  > -962.758452
tt + 1000 s_2_2 > 0.0
tt - t_2_2 - 1002.520791 s_2_2  + 2.520791 s_2_8  > -984.833978
tt + 1000 s_1_3 > 0.0
tt - t_1_3 - 1002.820129 s_1_3  + 2.820129 s_1_8  > -942.673475
tt + 1000 s_2_3 > 0.0
tt - t_2_3 - 1002.520791 s_2_3  + 2.520791 s_2_8  > -979.194471
tt + 1000 s_1_4 > 0.0
tt - t_1_4 - 1005.640258 s_1_4  + 2.820129 s_1_3  + 2.820129 s_1_8  > -969.728600
tt + 1000 s_2_4 > 0.0
tt - t_2_4 - 1005.041581 s_2_4  + 2.520791 s_2_3  + 2.520791 s_2_8  > -986.317844
tt + 1000 s_1_5 > 0.0
tt - t_1_5 - 1005.640258 s_1_5  + 2.820129 s_1_7  + 2.820129 s_1_8  > -972.679497
tt + 1000 s_2_5 > 0.0
tt - t_2_5 - 1005.041581 s_2_5  + 2.520791 s_2_7  + 2.520791 s_2_8  > -988.635678
tt + 1000 s_1_6 > 0.0
tt - t_1_6 - 1014.100646 s_1_6  + 2.820129 s_1_2  + 2.820129 s_1_3  + 2.820129 s_1_1  + 2.820129 s_1_4  + 2.820129 s_1_5  > -996.969750
tt + 1000 s_2_6 > 0.0
tt - t_2_6 - 1012.603953 s_2_6  + 2.520791 s_2_2  + 2.520791 s_2_3  + 2.520791 s_2_1  + 2.520791 s_2_4  + 2.520791 s_2_5  > -968.964000
tt + 1000 s_1_7 > 0.0
tt - t_1_7 - 1000.000000 s_1_7  > -933.357400
tt + 1000 s_2_7 > 0.0
tt - t_2_7 - 1000.000000 s_2_7  > -983.555811
tt + 1000 s_1_8 > 0.0
tt - t_1_8 - 1000.000000 s_1_8  > -933.309550
tt + 1000 s_2_8 > 0.0
tt - t_2_8 - 1000.000000 s_2_8  > -983.842000
s_1_1 + s_2_1 = 1
s_1_2 + s_2_2 = 1
s_1_3 + s_2_3 = 1
s_1_4 + s_2_4 = 1
s_1_5 + s_2_5 = 1
s_1_6 + s_2_6 = 1
s_1_7 + s_2_7 = 1
s_1_8 + s_2_8 = 1
s_1_1 + s_1_2 + 1000 r_1_1_2 >= 2
- s_1_1 - s_1_2 - 1000 r_1_1_2 >= -1001
t_1_1 - t_1_2 - 1000.000000 u_1_1_2 - 2.820129 s_1_2  + 2.820129 s_1_8  + 2000.000000 r_1_1_2 > -962.758452
s_2_1 + s_2_2 + 1000 r_2_1_2 >= 2
- s_2_1 - s_2_2 - 1000 r_2_1_2 >= -1001
t_2_1 - t_2_2 - 1000.000000 u_2_1_2 - 2.520791 s_2_2  + 2.520791 s_2_8  + 2000.000000 r_2_1_2 > -984.833978
s_1_1 + s_1_3 + 1000 r_1_1_3 >= 2
- s_1_1 - s_1_3 - 1000 r_1_1_3 >= -1001
t_1_1 - t_1_3 - 1000.000000 u_1_1_3 - 2.820129 s_1_3  + 2.820129 s_1_8  + 2000.000000 r_1_1_3 > -942.673475
s_2_1 + s_2_3 + 1000 r_2_1_3 >= 2
- s_2_1 - s_2_3 - 1000 r_2_1_3 >= -1001
t_2_1 - t_2_3 - 1000.000000 u_2_1_3 - 2.520791 s_2_3  + 2.520791 s_2_8  + 2000.000000 r_2_1_3 > -979.194471
s_1_1 + s_1_4 + 1000 r_1_1_4 >= 2
- s_1_1 - s_1_4 - 1000 r_1_1_4 >= -1001
t_1_1 - t_1_4 - 1000.000000 u_1_1_4 - 5.640258 s_1_4  + 2.820129 s_1_3  + 2.820129 s_1_8  + 2000.000000 r_1_1_4 > -969.728600
s_2_1 + s_2_4 + 1000 r_2_1_4 >= 2
- s_2_1 - s_2_4 - 1000 r_2_1_4 >= -1001
t_2_1 - t_2_4 - 1000.000000 u_2_1_4 - 5.041581 s_2_4  + 2.520791 s_2_3  + 2.520791 s_2_8  + 2000.000000 r_2_1_4 > -986.317844
s_1_1 + s_1_5 + 1000 r_1_1_5 >= 2
- s_1_1 - s_1_5 - 1000 r_1_1_5 >= -1001
t_1_1 - t_1_5 - 1000.000000 u_1_1_5 - 5.640258 s_1_5  + 2.820129 s_1_7  + 2.820129 s_1_8  + 2000.000000 r_1_1_5 > -972.679497
s_2_1 + s_2_5 + 1000 r_2_1_5 >= 2
- s_2_1 - s_2_5 - 1000 r_2_1_5 >= -1001
t_2_1 - t_2_5 - 1000.000000 u_2_1_5 - 5.041581 s_2_5  + 2.520791 s_2_7  + 2.520791 s_2_8  + 2000.000000 r_2_1_5 > -988.635678
t_1_6 - t_1_1 - 1002.820129 s_1_1  + 2.820129 s_1_7  > -966.514922
t_1_6 - t_2_1 - 1002.520791 s_2_1  + 2.520791 s_2_7  > -984.844867
t_2_6 - t_1_1 - 1002.820129 s_1_1  + 2.820129 s_1_7  > -966.514922
t_2_6 - t_2_1 - 1002.520791 s_2_1  + 2.520791 s_2_7  > -984.844867
t_1_1 - t_1_7 - 1000.000000 s_1_7  > -933.357400
t_1_1 - t_2_7 - 1000.000000 s_2_7  > -983.555811
t_2_1 - t_1_7 - 1000.000000 s_1_7  > -933.357400
t_2_1 - t_2_7 - 1000.000000 s_2_7  > -983.555811
s_1_1 + s_1_8 + 1000 r_1_1_8 >= 2
- s_1_1 - s_1_8 - 1000 r_1_1_8 >= -1001
t_1_1 - t_1_8 - 1000.000000 u_1_1_8 - 0.000000 s_1_8  + 2000.000000 r_1_1_8 > -933.309550
s_2_1 + s_2_8 + 1000 r_2_1_8 >= 2
- s_2_1 - s_2_8 - 1000 r_2_1_8 >= -1001
t_2_1 - t_2_8 - 1000.000000 u_2_1_8 - 0.000000 s_2_8  + 2000.000000 r_2_1_8 > -983.842000
s_1_2 + s_1_1 + 1000 r_1_1_2 >= 2
- s_1_2 - s_1_1 - 1000 r_1_1_2 >= -1001
t_1_2 - t_1_1 + 1000.000000 u_1_1_2 - 2.820129 s_1_1  + 2.820129 s_1_7  + 2000.000000 r_1_1_2 > 33.485078
s_2_2 + s_2_1 + 1000 r_2_1_2 >= 2
- s_2_2 - s_2_1 - 1000 r_2_1_2 >= -1001
t_2_2 - t_2_1 + 1000.000000 u_2_1_2 - 2.520791 s_2_1  + 2.520791 s_2_7  + 2000.000000 r_2_1_2 > 15.155133
s_1_2 + s_1_3 + 1000 r_1_2_3 >= 2
- s_1_2 - s_1_3 - 1000 r_1_2_3 >= -1001
t_1_2 - t_1_3 - 1000.000000 u_1_2_3 - 2.820129 s_1_3  + 2.820129 s_1_8  + 2000.000000 r_1_2_3 > -942.673475
s_2_2 + s_2_3 + 1000 r_2_2_3 >= 2
- s_2_2 - s_2_3 - 1000 r_2_2_3 >= -1001
t_2_2 - t_2_3 - 1000.000000 u_2_2_3 - 2.520791 s_2_3  + 2.520791 s_2_8  + 2000.000000 r_2_2_3 > -979.194471
s_1_2 + s_1_4 + 1000 r_1_2_4 >= 2
- s_1_2 - s_1_4 - 1000 r_1_2_4 >= -1001
t_1_2 - t_1_4 - 1000.000000 u_1_2_4 - 5.640258 s_1_4  + 2.820129 s_1_3  + 2.820129 s_1_8  + 2000.000000 r_1_2_4 > -969.728600
s_2_2 + s_2_4 + 1000 r_2_2_4 >= 2
- s_2_2 - s_2_4 - 1000 r_2_2_4 >= -1001
t_2_2 - t_2_4 - 1000.000000 u_2_2_4 - 5.041581 s_2_4  + 2.520791 s_2_3  + 2.520791 s_2_8  + 2000.000000 r_2_2_4 > -986.317844
s_1_2 + s_1_5 + 1000 r_1_2_5 >= 2
- s_1_2 - s_1_5 - 1000 r_1_2_5 >= -1001
t_1_2 - t_1_5 - 1000.000000 u_1_2_5 - 5.640258 s_1_5  + 2.820129 s_1_7  + 2.820129 s_1_8  + 2000.000000 r_1_2_5 > -972.679497
s_2_2 + s_2_5 + 1000 r_2_2_5 >= 2
- s_2_2 - s_2_5 - 1000 r_2_2_5 >= -1001
t_2_2 - t_2_5 - 1000.000000 u_2_2_5 - 5.041581 s_2_5  + 2.520791 s_2_7  + 2.520791 s_2_8  + 2000.000000 r_2_2_5 > -988.635678
t_1_6 - t_1_2 - 1002.820129 s_1_2  + 2.820129 s_1_8  > -962.758452
t_1_6 - t_2_2 - 1002.520791 s_2_2  + 2.520791 s_2_8  > -984.833978
t_2_6 - t_1_2 - 1002.820129 s_1_2  + 2.820129 s_1_8  > -962.758452
t_2_6 - t_2_2 - 1002.520791 s_2_2  + 2.520791 s_2_8  > -984.833978
s_1_2 + s_1_7 + 1000 r_1_2_7 >= 2
- s_1_2 - s_1_7 - 1000 r_1_2_7 >= -1001
t_1_2 - t_1_7 - 1000.000000 u_1_2_7 - 0.000000 s_1_7  + 2000.000000 r_1_2_7 > -933.357400
s_2_2 + s_2_7 + 1000 r_2_2_7 >= 2
- s_2_2 - s_2_7 - 1000 r_2_2_7 >= -1001
t_2_2 - t_2_7 - 1000.000000 u_2_2_7 - 0.000000 s_2_7  + 2000.000000 r_2_2_7 > -983.555811
t_1_2 - t_1_8 - 1000.000000 s_1_8  > -933.309550
t_1_2 - t_2_8 - 1000.000000 s_2_8  > -983.842000
t_2_2 - t_1_8 - 1000.000000 s_1_8  > -933.309550
t_2_2 - t_2_8 - 1000.000000 s_2_8  > -983.842000
s_1_3 + s_1_1 + 1000 r_1_1_3 >= 2
- s_1_3 - s_1_1 - 1000 r_1_1_3 >= -1001
t_1_3 - t_1_1 + 1000.000000 u_1_1_3 - 2.820129 s_1_1  + 2.820129 s_1_7  + 2000.000000 r_1_1_3 > 33.485078
s_2_3 + s_2_1 + 1000 r_2_1_3 >= 2
- s_2_3 - s_2_1 - 1000 r_2_1_3 >= -1001
t_2_3 - t_2_1 + 1000.000000 u_2_1_3 - 2.520791 s_2_1  + 2.520791 s_2_7  + 2000.000000 r_2_1_3 > 15.155133
s_1_3 + s_1_2 + 1000 r_1_2_3 >= 2
- s_1_3 - s_1_2 - 1000 r_1_2_3 >= -1001
t_1_3 - t_1_2 + 1000.000000 u_1_2_3 - 2.820129 s_1_2  + 2.820129 s_1_8  + 2000.000000 r_1_2_3 > 37.241548
s_2_3 + s_2_2 + 1000 r_2_2_3 >= 2
- s_2_3 - s_2_2 - 1000 r_2_2_3 >= -1001
t_2_3 - t_2_2 + 1000.000000 u_2_2_3 - 2.520791 s_2_2  + 2.520791 s_2_8  + 2000.000000 r_2_2_3 > 15.166022
t_1_4 - t_1_3 - 1002.820129 s_1_3  + 2.820129 s_1_8  > -942.673475
t_1_4 - t_2_3 - 1002.520791 s_2_3  + 2.520791 s_2_8  > -979.194471
t_2_4 - t_1_3 - 1002.820129 s_1_3  + 2.820129 s_1_8  > -942.673475
t_2_4 - t_2_3 - 1002.520791 s_2_3  + 2.520791 s_2_8  > -979.194471
s_1_3 + s_1_5 + 1000 r_1_3_5 >= 2
- s_1_3 - s_1_5 - 1000 r_1_3_5 >= -1001
t_1_3 - t_1_5 - 1000.000000 u_1_3_5 - 5.640258 s_1_5  + 2.820129 s_1_7  + 2.820129 s_1_8  + 2000.000000 r_1_3_5 > -972.679497
s_2_3 + s_2_5 + 1000 r_2_3_5 >= 2
- s_2_3 - s_2_5 - 1000 r_2_3_5 >= -1001
t_2_3 - t_2_5 - 1000.000000 u_2_3_5 - 5.041581 s_2_5  + 2.520791 s_2_7  + 2.520791 s_2_8  + 2000.000000 r_2_3_5 > -988.635678
t_1_6 - t_1_3 - 1002.820129 s_1_3  + 2.820129 s_1_8  > -942.673475
t_1_6 - t_2_3 - 1002.520791 s_2_3  + 2.520791 s_2_8  > -979.194471
t_2_6 - t_1_3 - 1002.820129 s_1_3  + 2.820129 s_1_8  > -942.673475
t_2_6 - t_2_3 - 1002.520791 s_2_3  + 2.520791 s_2_8  > -979.194471
s_1_3 + s_1_7 + 1000 r_1_3_7 >= 2
- s_1_3 - s_1_7 - 1000 r_1_3_7 >= -1001
t_1_3 - t_1_7 - 1000.000000 u_1_3_7 - 0.000000 s_1_7  + 2000.000000 r_1_3_7 > -933.357400
s_2_3 + s_2_7 + 1000 r_2_3_7 >= 2
- s_2_3 - s_2_7 - 1000 r_2_3_7 >= -1001
t_2_3 - t_2_7 - 1000.000000 u_2_3_7 - 0.000000 s_2_7  + 2000.000000 r_2_3_7 > -983.555811
t_1_3 - t_1_8 - 1000.000000 s_1_8  > -933.309550
t_1_3 - t_2_8 - 1000.000000 s_2_8  > -983.842000
t_2_3 - t_1_8 - 1000.000000 s_1_8  > -933.309550
t_2_3 - t_2_8 - 1000.000000 s_2_8  > -983.842000
s_1_4 + s_1_1 + 1000 r_1_1_4 >= 2
- s_1_4 - s_1_1 - 1000 r_1_1_4 >= -1001
t_1_4 - t_1_1 + 1000.000000 u_1_1_4 - 2.820129 s_1_1  + 2.820129 s_1_7  + 2000.000000 r_1_1_4 > 33.485078
s_2_4 + s_2_1 + 1000 r_2_1_4 >= 2
- s_2_4 - s_2_1 - 1000 r_2_1_4 >= -1001
t_2_4 - t_2_1 + 1000.000000 u_2_1_4 - 2.520791 s_2_1  + 2.520791 s_2_7  + 2000.000000 r_2_1_4 > 15.155133
s_1_4 + s_1_2 + 1000 r_1_2_4 >= 2
- s_1_4 - s_1_2 - 1000 r_1_2_4 >= -1001
t_1_4 - t_1_2 + 1000.000000 u_1_2_4 - 2.820129 s_1_2  + 2.820129 s_1_8  + 2000.000000 r_1_2_4 > 37.241548
s_2_4 + s_2_2 + 1000 r_2_2_4 >= 2
- s_2_4 - s_2_2 - 1000 r_2_2_4 >= -1001
t_2_4 - t_2_2 + 1000.000000 u_2_2_4 - 2.520791 s_2_2  + 2.520791 s_2_8  + 2000.000000 r_2_2_4 > 15.166022
s_1_4 + s_1_5 + 1000 r_1_4_5 >= 2
- s_1_4 - s_1_5 - 1000 r_1_4_5 >= -1001
t_1_4 - t_1_5 - 1000.000000 u_1_4_5 - 5.640258 s_1_5  + 2.820129 s_1_7  + 2.820129 s_1_8  + 2000.000000 r_1_4_5 > -972.679497
s_2_4 + s_2_5 + 1000 r_2_4_5 >= 2
- s_2_4 - s_2_5 - 1000 r_2_4_5 >= -1001
t_2_4 - t_2_5 - 1000.000000 u_2_4_5 - 5.041581 s_2_5  + 2.520791 s_2_7  + 2.520791 s_2_8  + 2000.000000 r_2_4_5 > -988.635678
t_1_6 - t_1_4 - 1005.640258 s_1_4  + 2.820129 s_1_3  + 2.820129 s_1_8  > -969.728600
t_1_6 - t_2_4 - 1005.041581 s_2_4  + 2.520791 s_2_3  + 2.520791 s_2_8  > -986.317844
t_2_6 - t_1_4 - 1005.640258 s_1_4  + 2.820129 s_1_3  + 2.820129 s_1_8  > -969.728600
t_2_6 - t_2_4 - 1005.041581 s_2_4  + 2.520791 s_2_3  + 2.520791 s_2_8  > -986.317844
s_1_4 + s_1_7 + 1000 r_1_4_7 >= 2
- s_1_4 - s_1_7 - 1000 r_1_4_7 >= -1001
t_1_4 - t_1_7 - 1000.000000 u_1_4_7 - 0.000000 s_1_7  + 2000.000000 r_1_4_7 > -933.357400
s_2_4 + s_2_7 + 1000 r_2_4_7 >= 2
- s_2_4 - s_2_7 - 1000 r_2_4_7 >= -1001
t_2_4 - t_2_7 - 1000.000000 u_2_4_7 - 0.000000 s_2_7  + 2000.000000 r_2_4_7 > -983.555811
t_1_4 - t_1_8 - 1000.000000 s_1_8  > -933.309550
t_1_4 - t_2_8 - 1000.000000 s_2_8  > -983.842000
t_2_4 - t_1_8 - 1000.000000 s_1_8  > -933.309550
t_2_4 - t_2_8 - 1000.000000 s_2_8  > -983.842000
s_1_5 + s_1_1 + 1000 r_1_1_5 >= 2
- s_1_5 - s_1_1 - 1000 r_1_1_5 >= -1001
t_1_5 - t_1_1 + 1000.000000 u_1_1_5 - 2.820129 s_1_1  + 2.820129 s_1_7  + 2000.000000 r_1_1_5 > 33.485078
s_2_5 + s_2_1 + 1000 r_2_1_5 >= 2
- s_2_5 - s_2_1 - 1000 r_2_1_5 >= -1001
t_2_5 - t_2_1 + 1000.000000 u_2_1_5 - 2.520791 s_2_1  + 2.520791 s_2_7  + 2000.000000 r_2_1_5 > 15.155133
s_1_5 + s_1_2 + 1000 r_1_2_5 >= 2
- s_1_5 - s_1_2 - 1000 r_1_2_5 >= -1001
t_1_5 - t_1_2 + 1000.000000 u_1_2_5 - 2.820129 s_1_2  + 2.820129 s_1_8  + 2000.000000 r_1_2_5 > 37.241548
s_2_5 + s_2_2 + 1000 r_2_2_5 >= 2
- s_2_5 - s_2_2 - 1000 r_2_2_5 >= -1001
t_2_5 - t_2_2 + 1000.000000 u_2_2_5 - 2.520791 s_2_2  + 2.520791 s_2_8  + 2000.000000 r_2_2_5 > 15.166022
s_1_5 + s_1_3 + 1000 r_1_3_5 >= 2
- s_1_5 - s_1_3 - 1000 r_1_3_5 >= -1001
t_1_5 - t_1_3 + 1000.000000 u_1_3_5 - 2.820129 s_1_3  + 2.820129 s_1_8  + 2000.000000 r_1_3_5 > 57.326525
s_2_5 + s_2_3 + 1000 r_2_3_5 >= 2
- s_2_5 - s_2_3 - 1000 r_2_3_5 >= -1001
t_2_5 - t_2_3 + 1000.000000 u_2_3_5 - 2.520791 s_2_3  + 2.520791 s_2_8  + 2000.000000 r_2_3_5 > 20.805529
s_1_5 + s_1_4 + 1000 r_1_4_5 >= 2
- s_1_5 - s_1_4 - 1000 r_1_4_5 >= -1001
t_1_5 - t_1_4 + 1000.000000 u_1_4_5 - 5.640258 s_1_4  + 2.820129 s_1_3  + 2.820129 s_1_8  + 2000.000000 r_1_4_5 > 30.271400
s_2_5 + s_2_4 + 1000 r_2_4_5 >= 2
- s_2_5 - s_2_4 - 1000 r_2_4_5 >= -1001
t_2_5 - t_2_4 + 1000.000000 u_2_4_5 - 5.041581 s_2_4  + 2.520791 s_2_3  + 2.520791 s_2_8  + 2000.000000 r_2_4_5 > 13.682156
t_1_6 - t_1_5 - 1005.640258 s_1_5  + 2.820129 s_1_7  + 2.820129 s_1_8  > -972.679497
t_1_6 - t_2_5 - 1005.041581 s_2_5  + 2.520791 s_2_7  + 2.520791 s_2_8  > -988.635678
t_2_6 - t_1_5 - 1005.640258 s_1_5  + 2.820129 s_1_7  + 2.820129 s_1_8  > -972.679497
t_2_6 - t_2_5 - 1005.041581 s_2_5  + 2.520791 s_2_7  + 2.520791 s_2_8  > -988.635678
t_1_5 - t_1_7 - 1000.000000 s_1_7  > -933.357400
t_1_5 - t_2_7 - 1000.000000 s_2_7  > -983.555811
t_2_5 - t_1_7 - 1000.000000 s_1_7  > -933.357400
t_2_5 - t_2_7 - 1000.000000 s_2_7  > -983.555811
t_1_5 - t_1_8 - 1000.000000 s_1_8  > -933.309550
t_1_5 - t_2_8 - 1000.000000 s_2_8  > -983.842000
t_2_5 - t_1_8 - 1000.000000 s_1_8  > -933.309550
t_2_5 - t_2_8 - 1000.000000 s_2_8  > -983.842000
s_1_7 + s_1_2 + 1000 r_1_2_7 >= 2
- s_1_7 - s_1_2 - 1000 r_1_2_7 >= -1001
t_1_7 - t_1_2 + 1000.000000 u_1_2_7 - 2.820129 s_1_2  + 2.820129 s_1_8  + 2000.000000 r_1_2_7 > 37.241548
s_2_7 + s_2_2 + 1000 r_2_2_7 >= 2
- s_2_7 - s_2_2 - 1000 r_2_2_7 >= -1001
t_2_7 - t_2_2 + 1000.000000 u_2_2_7 - 2.520791 s_2_2  + 2.520791 s_2_8  + 2000.000000 r_2_2_7 > 15.166022
s_1_7 + s_1_3 + 1000 r_1_3_7 >= 2
- s_1_7 - s_1_3 - 1000 r_1_3_7 >= -1001
t_1_7 - t_1_3 + 1000.000000 u_1_3_7 - 2.820129 s_1_3  + 2.820129 s_1_8  + 2000.000000 r_1_3_7 > 57.326525
s_2_7 + s_2_3 + 1000 r_2_3_7 >= 2
- s_2_7 - s_2_3 - 1000 r_2_3_7 >= -1001
t_2_7 - t_2_3 + 1000.000000 u_2_3_7 - 2.520791 s_2_3  + 2.520791 s_2_8  + 2000.000000 r_2_3_7 > 20.805529
s_1_7 + s_1_4 + 1000 r_1_4_7 >= 2
- s_1_7 - s_1_4 - 1000 r_1_4_7 >= -1001
t_1_7 - t_1_4 + 1000.000000 u_1_4_7 - 5.640258 s_1_4  + 2.820129 s_1_3  + 2.820129 s_1_8  + 2000.000000 r_1_4_7 > 30.271400
s_2_7 + s_2_4 + 1000 r_2_4_7 >= 2
- s_2_7 - s_2_4 - 1000 r_2_4_7 >= -1001
t_2_7 - t_2_4 + 1000.000000 u_2_4_7 - 5.041581 s_2_4  + 2.520791 s_2_3  + 2.520791 s_2_8  + 2000.000000 r_2_4_7 > 13.682156
s_1_7 + s_1_8 + 1000 r_1_7_8 >= 2
- s_1_7 - s_1_8 - 1000 r_1_7_8 >= -1001
t_1_7 - t_1_8 - 1000.000000 u_1_7_8 - 0.000000 s_1_8  + 2000.000000 r_1_7_8 > -933.309550
s_2_7 + s_2_8 + 1000 r_2_7_8 >= 2
- s_2_7 - s_2_8 - 1000 r_2_7_8 >= -1001
t_2_7 - t_2_8 - 1000.000000 u_2_7_8 - 0.000000 s_2_8  + 2000.000000 r_2_7_8 > -983.842000
s_1_8 + s_1_1 + 1000 r_1_1_8 >= 2
- s_1_8 - s_1_1 - 1000 r_1_1_8 >= -1001
t_1_8 - t_1_1 + 1000.000000 u_1_1_8 - 2.820129 s_1_1  + 2.820129 s_1_7  + 2000.000000 r_1_1_8 > 33.485078
s_2_8 + s_2_1 + 1000 r_2_1_8 >= 2
- s_2_8 - s_2_1 - 1000 r_2_1_8 >= -1001
t_2_8 - t_2_1 + 1000.000000 u_2_1_8 - 2.520791 s_2_1  + 2.520791 s_2_7  + 2000.000000 r_2_1_8 > 15.155133
s_1_8 + s_1_7 + 1000 r_1_7_8 >= 2
- s_1_8 - s_1_7 - 1000 r_1_7_8 >= -1001
t_1_8 - t_1_7 + 1000.000000 u_1_7_8 - 0.000000 s_1_7  + 2000.000000 r_1_7_8 > 66.642600
s_2_8 + s_2_7 + 1000 r_2_7_8 >= 2
- s_2_8 - s_2_7 - 1000 r_2_7_8 >= -1001
t_2_8 - t_2_7 + 1000.000000 u_2_7_8 - 0.000000 s_2_7  + 2000.000000 r_2_7_8 > 16.444189
Binary
s_1_1
s_2_1
s_1_2
s_2_2
s_1_3
s_2_3
s_1_4
s_2_4
s_1_5
s_2_5
s_1_6
s_2_6
s_1_7
s_2_7
s_1_8
s_2_8
u_1_1_2
r_1_1_2
u_2_1_2
r_2_1_2
u_1_1_3
r_1_1_3
u_2_1_3
r_2_1_3
u_1_1_4
r_1_1_4
u_2_1_4
r_2_1_4
u_1_1_5
r_1_1_5
u_2_1_5
r_2_1_5
u_1_1_8
r_1_1_8
u_2_1_8
r_2_1_8
u_1_2_3
r_1_2_3
u_2_2_3
r_2_2_3
u_1_2_4
r_1_2_4
u_2_2_4
r_2_2_4
u_1_2_5
r_1_2_5
u_2_2_5
r_2_2_5
u_1_2_7
r_1_2_7
u_2_2_7
r_2_2_7
u_1_3_5
r_1_3_5
u_2_3_5
r_2_3_5
u_1_3_7
r_1_3_7
u_2_3_7
r_2_3_7
u_1_4_5
r_1_4_5
u_2_4_5
r_2_4_5
u_1_4_7
r_1_4_7
u_2_4_7
r_2_4_7
u_1_7_8
r_1_7_8
u_2_7_8
r_2_7_8

End
